
Gurobi 11.0.3 (win64) logging started Fri Sep 20 10:12:16 2024

Set parameter LogFile to value "C:\Users\ealvarezq\Desktop\D.Representative_days_based_on_RES_and_Demand\IEEE118_mod1_ByStages_nc140/openStarNet_IEEE118_mod1_ByStages_nc140.log"
Set parameter Method to value 2
Set parameter MIPFocus to value 1
Set parameter Presolve to value 2
Set parameter RINS to value 100
Set parameter MIPGap to value 0.01
Set parameter Threads to value 24
Set parameter TimeLimit to value 259200
Set parameter IterationLimit to value 760000000
Gurobi Optimizer version 11.0.3 build v11.0.3rc0 (win64 - Windows Server 2019.0 (17763.2))

CPU model: AMD Ryzen Threadripper PRO 3955WX 16-Cores, instruction set [SSE2|AVX|AVX2]
Thread count: 16 physical cores, 32 logical processors, using up to 24 threads

Optimize a model with 198943 rows, 147102 columns and 512600 nonzeros
Model fingerprint: 0xc19b7959
Variable types: 147068 continuous, 34 integer (34 binary)
Coefficient statistics:
  Matrix range     [8e-04, 9e+03]
  Objective range  [1e+00, 1e+00]
  Bounds range     [1e-04, 3e+00]
  RHS range        [2e-04, 3e+00]
Presolve removed 134668 rows and 68209 columns
Presolve time: 1.42s
Presolved: 64275 rows, 78893 columns, 234881 nonzeros
Variable types: 78859 continuous, 34 integer (34 binary)
Root relaxation presolved: 64275 rows, 78893 columns, 234881 nonzeros

Root barrier log...

Ordering time: 0.05s

Barrier statistics:
 Dense cols : 34
 AA' NZ     : 2.914e+05
 Factor NZ  : 1.151e+06 (roughly 70 MB of memory)
 Factor Ops : 2.537e+07 (less than 1 second per iteration)
 Threads    : 23

                  Objective                Residual
Iter       Primal          Dual         Primal    Dual     Compl     Time
   0   9.03521322e+06 -5.97546621e+08  1.58e+01 5.26e+02  1.41e+04     2s
   1   2.21367358e+06 -2.30958499e+08  3.53e+00 1.51e-08  2.95e+03     2s
   2   6.17187482e+05 -6.09205808e+07  6.73e-01 2.04e-08  5.23e+02     2s
   3   3.23851533e+05 -1.76826078e+07  1.34e-01 2.57e-09  1.16e+02     3s
   4   2.18005267e+05 -3.16195783e+06  1.59e-02 5.23e-10  1.85e+01     3s
   5   1.60862977e+05 -9.34273081e+05  7.99e-03 1.45e-10  5.89e+00     3s
   6   6.73190435e+04 -3.83963349e+05  2.53e-03 5.74e-11  2.40e+00     3s
   7   2.72969796e+04 -1.30749264e+05  7.55e-04 1.74e-11  8.36e-01     3s
   8   1.41234970e+04 -4.81167109e+04  2.84e-04 6.30e-12  3.29e-01     3s
   9   8.72490771e+03 -2.70697761e+04  1.35e-04 3.71e-12  1.89e-01     3s
  10   5.61660337e+03 -8.54284478e+03  6.93e-05 1.57e-12  7.48e-02     3s
  11   4.08503741e+03 -3.92563277e+03  4.23e-05 1.53e-12  4.23e-02     3s
  12   2.83866788e+03 -1.06720583e+03  2.33e-05 3.77e-12  2.06e-02     3s
  13   2.20678738e+03 -9.69696661e+01  1.45e-05 1.86e-12  1.22e-02     3s
  14   1.76773340e+03  3.60170905e+02  8.66e-06 1.72e-12  7.43e-03     3s
  15   1.46643417e+03  7.46171943e+02  4.81e-06 5.09e-12  3.80e-03     3s
  16   1.32765457e+03  8.69839768e+02  3.12e-06 3.11e-12  2.42e-03     3s
  17   1.23165935e+03  9.20583419e+02  1.93e-06 2.36e-12  1.64e-03     3s
  18   1.18041110e+03  9.78940464e+02  1.29e-06 2.28e-12  1.06e-03     3s
  19   1.15204642e+03  1.00530583e+03  9.54e-07 2.94e-12  7.75e-04     3s
  20   1.11862091e+03  1.02567033e+03  5.56e-07 2.47e-12  4.91e-04     3s
  21   1.09594278e+03  1.03941156e+03  2.98e-07 2.53e-12  2.99e-04     3s
  22   1.08256568e+03  1.05817573e+03  1.40e-07 2.30e-11  1.29e-04     3s
  23   1.07634918e+03  1.06344187e+03  6.92e-08 1.68e-11  6.82e-05     3s
  24   1.07434161e+03  1.06534917e+03  4.59e-08 8.37e-12  4.75e-05     3s
  25   1.07344707e+03  1.06769395e+03  3.59e-08 8.22e-12  3.04e-05     3s
  26   1.07205644e+03  1.06838643e+03  1.95e-08 8.49e-12  1.94e-05     4s
  27   1.07112968e+03  1.06907029e+03  1.89e-08 1.88e-12  1.09e-05     4s
  28   1.07065301e+03  1.06984670e+03  1.15e-08 5.13e-12  4.26e-06     4s
  29   1.07045544e+03  1.07001575e+03  6.30e-09 3.94e-12  2.32e-06     4s
  30   1.07038271e+03  1.07016998e+03  4.67e-09 2.47e-12  1.12e-06     4s
  31   1.07028284e+03  1.07023239e+03  1.66e-09 2.01e-12  2.66e-07     4s
  32   1.07026507e+03  1.07025141e+03  1.69e-09 2.97e-12  7.22e-08     4s
  33   1.07025651e+03  1.07025340e+03  9.46e-10 2.50e-12  1.64e-08     4s
  34   1.07025516e+03  1.07025389e+03  7.33e-10 1.58e-12  6.74e-09     4s
  35   1.07025448e+03  1.07025424e+03  4.68e-09 2.39e-12  1.23e-09     4s
  36   1.07025439e+03  1.07025436e+03  1.40e-09 2.21e-12  1.75e-10     4s
  37   1.07025438e+03  1.07025438e+03  2.83e-10 2.43e-12  4.11e-12     4s

Barrier solved model in 37 iterations and 3.92 seconds (2.70 work units)
Optimal objective 1.07025438e+03


Root simplex log...

Iteration    Objective       Primal Inf.    Dual Inf.      Time
    5819    1.0702544e+03   0.000000e+00   0.000000e+00      5s

Root relaxation: objective 1.070254e+03, 5819 iterations, 3.26 seconds (2.17 work units)

    Nodes    |    Current Node    |     Objective Bounds      |     Work
 Expl Unexpl |  Obj  Depth IntInf | Incumbent    BestBd   Gap | It/Node Time

     0     0 1070.25438    0   24          - 1070.25438      -     -    6s
H    0     0                    8519.9783300 1070.25438  87.4%     -   11s
H    0     0                    1312.6815779 1070.25438  18.5%     -   17s
     0     0 1092.91419    0   24 1312.68158 1092.91419  16.7%     -   27s
     0     0 1093.10805    0   23 1312.68158 1093.10805  16.7%     -   32s
     0     0 1093.11185    0   23 1312.68158 1093.11185  16.7%     -   32s
     0     0 1094.40504    0   22 1312.68158 1094.40504  16.6%     -   35s
     0     0 1096.34913    0   22 1312.68158 1096.34913  16.5%     -   40s
     0     0 1096.34913    0   22 1312.68158 1096.34913  16.5%     -   40s
     0     0 1097.26180    0   22 1312.68158 1097.26180  16.4%     -   45s
     0     0 1097.33754    0   22 1312.68158 1097.33754  16.4%     -   47s
     0     0 1097.33775    0   21 1312.68158 1097.33775  16.4%     -   47s
     0     0 1109.06175    0   21 1312.68158 1109.06175  15.5%     -   51s
     0     0 1109.06175    0   21 1312.68158 1109.06175  15.5%     -   52s
     0     0 1109.39473    0   21 1312.68158 1109.39473  15.5%     -   55s
H    0     0                    1247.4333486 1109.39473  11.1%     -  872s
     0     2 1109.39473    0   21 1247.43335 1109.39473  11.1%     -  874s
     1     4 1175.46500    1   21 1247.43335 1109.39473  11.1% 10232  887s
     3     8 1222.90352    2   20 1247.43335 1109.39473  11.1%  5445  903s
     7    12     cutoff    3      1247.43335 1129.35952  9.47%  3939  920s
    15    20 1160.47359    4   19 1247.43335 1140.04408  8.61%  3357  933s
    27    28 1202.72580    5   18 1247.43335 1145.97859  8.13%  2941  958s
    47    48     cutoff    6      1247.43335 1155.24236  7.39%  2812  980s
    71    64 1233.83030    7   19 1247.43335 1158.95171  7.09%  2663  996s
    95    76 1236.31848    8   18 1247.43335 1159.00208  7.09%  2568 1017s
   119    88 1243.11106    9   17 1247.43335 1159.00208  7.09%  2392 1032s
   143    97 1244.27002   10   16 1247.43335 1159.00208  7.09%  2311 1048s
   170    96     cutoff   11      1247.43335 1159.00208  7.09%  2184 1065s
   201    93     cutoff   10      1247.43335 1159.00208  7.09%  2101 1081s
   236    83 1189.40563    8   15 1247.43335 1159.00208  7.09%  2096 1099s
   276    83 1218.78447    9   14 1247.43335 1159.00208  7.09%  1986 1117s
   314    78 1239.58848   10   14 1247.43335 1159.00208  7.09%  2001 1140s
   361    75 1241.83013   11   13 1247.43335 1159.00208  7.09%  1930 1178s
   416    61     cutoff   13      1247.43335 1159.00208  7.09%  1865 1209s
   482    45     cutoff   12      1247.43335 1172.80543  5.98%  1808 1240s
   552    53 1185.49815    8   14 1247.43335 1172.90327  5.97%  1732 1265s
   602    60 1206.36576    9   13 1247.43335 1183.41740  5.13%  1718 1281s
   663    51 1232.58001   10   13 1247.43335 1183.41740  5.13%  1628 1315s
   726    48     cutoff   11      1247.43335 1185.63115  4.95%  1618 1349s
   791    49 1207.02841    9   14 1247.43335 1186.58673  4.88%  1592 1382s
   865    31 1231.54257   10   12 1247.43335 1186.58673  4.88%  1569 1399s
   946    21     cutoff   11      1247.43335 1189.46798  4.65%  1485 1425s
   991    18 1240.18484   10   12 1247.43335 1189.46798  4.65%  1486 1440s
  1034     4     cutoff   11      1247.43335 1196.11999  4.11%  1476 1450s
  1058     8     cutoff   10      1247.43335 1203.36298  3.53%  1467 1467s
  1064     4 1241.06189   13    9 1247.43335 1212.56979  2.79%  1468 1477s
  1084     1     cutoff   14      1247.43335 1227.43762  1.60%  1459 1482s

Cutting planes:
  Gomory: 1
  Implied bound: 212
  MIR: 573
  RLT: 6

Explored 1092 nodes (1603077 simplex iterations) in 1484.29 seconds (1217.80 work units)
Thread count was 24 (of 32 available processors)

Solution count 3: 1247.43 1312.68 8519.98 

Optimal solution found (tolerance 1.00e-02)
Best objective 1.247433348597e+03, best bound 1.247433348597e+03, gap 0.0000%

Gurobi 11.0.3 (win64) logging started Fri Sep 20 10:39:15 2024

Set parameter LogFile to value "C:\Users\ealvarezq\Desktop\D.Representative_days_based_on_RES_and_Demand\IEEE118_mod1_ByStages_nc140/openStarNet_IEEE118_mod1_ByStages_nc140.log"
Set parameter Method to value 2
Set parameter MIPFocus to value 1
Set parameter Presolve to value 2
Set parameter RINS to value 100
Set parameter MIPGap to value 0.01
Set parameter Threads to value 24
Set parameter TimeLimit to value 259200
Set parameter IterationLimit to value 760000000
Gurobi Optimizer version 11.0.3 build v11.0.3rc0 (win64 - Windows Server 2019.0 (17763.2))

CPU model: AMD Ryzen Threadripper PRO 3955WX 16-Cores, instruction set [SSE2|AVX|AVX2]
Thread count: 16 physical cores, 32 logical processors, using up to 24 threads

Optimize a model with 198943 rows, 147068 columns and 493526 nonzeros
Model fingerprint: 0x52d9b5b4
Coefficient statistics:
  Matrix range     [8e-04, 9e+03]
  Objective range  [1e+00, 1e+00]
  Bounds range     [1e-04, 3e+00]
  RHS range        [2e-04, 3e+02]
Presolve removed 148012 rows and 64350 columns
Presolve time: 0.56s
Presolved: 50931 rows, 83014 columns, 198436 nonzeros

Ordering time: 0.03s

Barrier statistics:
 AA' NZ     : 1.675e+05
 Factor NZ  : 6.669e+05 (roughly 60 MB of memory)
 Factor Ops : 9.584e+06 (less than 1 second per iteration)
 Threads    : 24

                  Objective                Residual
Iter       Primal          Dual         Primal    Dual     Compl     Time
   0   1.58185114e+07 -3.09932023e+08  9.92e+01 4.91e+01  6.86e+03     1s
   1   1.96734281e+06 -9.44863860e+07  1.09e+01 6.82e-13  9.57e+02     1s
   2   4.35585640e+05 -1.74059078e+07  1.46e+00 6.82e-13  1.34e+02     1s
   3   1.77135648e+05 -2.87494133e+06  5.85e-02 5.12e-13  1.75e+01     1s
   4   7.14933288e+04 -4.84043387e+05  1.16e-02 1.02e-12  3.09e+00     1s
   5   2.67919213e+04 -1.10925813e+05  3.67e-03 3.13e-13  7.62e-01     1s
   6   9.06862706e+03 -3.25948571e+04  6.64e-04 1.99e-13  2.30e-01     1s
   7   5.68791171e+03 -1.06119424e+04  2.85e-04 1.58e-13  8.99e-02     1s
   8   3.91833592e+03 -4.97708868e+03  1.52e-04 1.15e-13  4.91e-02     1s
   9   2.92110079e+03 -2.19594579e+03  8.93e-05 1.46e-13  2.82e-02     1s
  10   2.17389085e+03 -4.88034878e+01  4.59e-05 1.30e-13  1.23e-02     1s
  11   1.72360806e+03  5.08952409e+02  2.24e-05 1.81e-13  6.70e-03     1s
  12   1.51835783e+03  8.34846990e+02  1.23e-05 1.65e-13  3.77e-03     1s
  13   1.40406252e+03  9.60968277e+02  6.94e-06 1.37e-13  2.44e-03     1s
  14   1.34817767e+03  1.08860154e+03  4.38e-06 1.44e-13  1.43e-03     1s
  15   1.30695900e+03  1.15161702e+03  2.52e-06 1.14e-13  8.57e-04     1s
  16   1.27437970e+03  1.19247364e+03  1.12e-06 1.45e-13  4.52e-04     2s
  17   1.26131094e+03  1.21673388e+03  5.58e-07 2.10e-13  2.46e-04     2s
  18   1.25146180e+03  1.23226221e+03  1.48e-07 1.72e-13  1.06e-04     2s
  19   1.24958155e+03  1.24031180e+03  7.32e-08 2.05e-13  5.11e-05     2s
  20   1.24814417e+03  1.24622041e+03  2.20e-08 2.69e-13  1.06e-05     2s
  21   1.24759910e+03  1.24707800e+03  4.48e-09 1.47e-13  2.87e-06     2s
  22   1.24745390e+03  1.24715351e+03  4.11e-10 1.64e-13  1.66e-06     2s
  23   1.24744386e+03  1.24731115e+03  2.86e-10 1.52e-13  7.32e-07     2s
  24   1.24743571e+03  1.24741157e+03  1.26e-10 1.31e-13  1.33e-07     2s
  25   1.24743355e+03  1.24743124e+03  1.85e-10 1.55e-13  1.28e-08     2s
  26   1.24743339e+03  1.24743333e+03  3.68e-10 1.76e-13  2.93e-10     2s
  27   1.24743335e+03  1.24743335e+03  7.75e-11 1.50e-13  5.40e-13     2s

Barrier solved model in 27 iterations and 1.84 seconds (0.94 work units)
Optimal objective 1.24743335e+03

Crossover log...

   14650 DPushes remaining with DInf 0.0000000e+00                 2s
       0 DPushes remaining with DInf 0.0000000e+00                 2s

    1311 PPushes remaining with PInf 0.0000000e+00                 2s
       0 PPushes remaining with PInf 0.0000000e+00                 2s

  Push phase complete: Pinf 0.0000000e+00, Dinf 3.5272201e-12      2s

Iteration    Objective       Primal Inf.    Dual Inf.      Time
    3702    1.2474333e+03   0.000000e+00   0.000000e+00      2s

Solved in 3702 iterations and 2.30 seconds (1.16 work units)
Optimal objective  1.247433349e+03

Gurobi 11.0.0 (linux64) logging started Sat Sep 21 21:38:46 2024

Set parameter LogFile to value "/lustre1/scratch/348/vsc34888/JointResearch/05.Models/06.Benchmarking/D.Representative_days_based_on_RES_and_Demand/IEEE118_mod1_ByStages_nc140/openStarNet_IEEE118_mod1_ByStages_nc140.log"
Set parameter Method to value 2
Set parameter MIPFocus to value 1
Set parameter Presolve to value 2
Set parameter RINS to value 100
Set parameter MIPGap to value 0.01
Set parameter Threads to value 36
Set parameter TimeLimit to value 259200
Set parameter IterationLimit to value 760000000
Gurobi Optimizer version 11.0.0 build v11.0.0rc2 (linux64 - "Rocky Linux 8.9 (Green Obsidian)")

CPU model: Intel(R) Xeon(R) Gold 6240 CPU @ 2.60GHz, instruction set [SSE2|AVX|AVX2|AVX512]
Thread count: 36 physical cores, 36 logical processors, using up to 36 threads

Optimize a model with 198943 rows, 147068 columns and 493526 nonzeros
Model fingerprint: 0xb53334e4
Coefficient statistics:
  Matrix range     [8e-04, 9e+03]
  Objective range  [1e+00, 1e+00]
  Bounds range     [1e-04, 3e+00]
  RHS range        [2e-04, 3e+00]
Presolve removed 150498 rows and 68967 columns
Presolve time: 0.29s
Presolved: 48445 rows, 80369 columns, 191028 nonzeros

Ordering time: 0.01s

Barrier statistics:
 AA' NZ     : 1.686e+05
 Factor NZ  : 6.295e+05 (roughly 60 MB of memory)
 Factor Ops : 9.105e+06 (less than 1 second per iteration)
 Threads    : 36

                  Objective                Residual
Iter       Primal          Dual         Primal    Dual     Compl     Time
   0   1.74342947e+07 -4.20321496e+08  1.11e+02 3.32e+01  1.18e+04     0s
   1   1.83688964e+06 -1.41143659e+08  1.00e+01 1.18e-12  1.47e+03     0s
   2   5.69274400e+05 -2.82872169e+07  2.02e+00 1.15e-12  2.51e+02     0s
   3   2.45138152e+05 -4.62781713e+06  6.75e-02 8.53e-13  2.92e+01     1s
   4   1.44120481e+05 -7.82997825e+05  6.70e-03 7.96e-13  5.30e+00     1s
   5   8.78624167e+04 -2.87623119e+05  3.28e-03 6.82e-13  2.14e+00     1s
   6   5.80357430e+04 -1.52044576e+05  1.84e-03 2.27e-13  1.20e+00     1s
   7   4.38229972e+04 -8.35461207e+04  1.19e-03 4.55e-13  7.24e-01     1s
   8   3.20927232e+04 -4.15581338e+04  6.67e-04 2.27e-13  4.19e-01     1s
   9   2.37612628e+04 -6.84787398e+03  3.24e-04 2.27e-13  1.74e-01     1s
  10   2.08819289e+04  3.23457266e+03  2.21e-04 4.55e-13  1.00e-01     1s
  11   1.79318196e+04  9.50270480e+03  1.27e-04 3.41e-13  4.79e-02     1s
  12   1.61330869e+04  1.17781514e+04  7.29e-05 2.27e-13  2.47e-02     1s
  13   1.49765479e+04  1.24531852e+04  3.86e-05 2.27e-13  1.43e-02     1s
  14   1.45806741e+04  1.29222855e+04  2.66e-05 2.27e-13  9.42e-03     1s
  15   1.42779348e+04  1.31907765e+04  1.77e-05 2.27e-13  6.18e-03     1s
  16   1.40705535e+04  1.33695232e+04  1.18e-05 2.49e-13  3.98e-03     1s
  17   1.38806984e+04  1.34733093e+04  6.40e-06 2.27e-13  2.31e-03     1s
  18   1.38039638e+04  1.35709250e+04  4.31e-06 2.27e-13  1.32e-03     1s
  19   1.37310579e+04  1.36014165e+04  2.31e-06 2.27e-13  7.36e-04     1s
  20   1.36720201e+04  1.36253223e+04  7.22e-07 2.30e-13  2.65e-04     1s
  21   1.36545271e+04  1.36397163e+04  2.67e-07 2.27e-13  8.41e-05     1s
  22   1.36467088e+04  1.36422293e+04  7.23e-08 2.27e-13  2.54e-05     1s
  23   1.36447758e+04  1.36429660e+04  2.60e-08 4.55e-13  1.03e-05     1s
  24   1.36442348e+04  1.36434720e+04  1.31e-08 4.55e-13  4.33e-06     1s
  25   1.36438381e+04  1.36436150e+04  4.02e-09 4.55e-13  1.27e-06     1s
  26   1.36436633e+04  1.36436490e+04  3.61e-10 3.41e-13  8.13e-08     1s
  27   1.36436557e+04  1.36436552e+04  2.86e-10 4.55e-13  3.01e-09     1s
  28   1.36436554e+04  1.36436554e+04  4.99e-10 2.27e-13  1.61e-11     1s

Barrier solved model in 28 iterations and 1.18 seconds (0.92 work units)
Optimal objective 1.36436554e+04

Crossover log...

   14207 DPushes remaining with DInf 0.0000000e+00                 1s
       0 DPushes remaining with DInf 0.0000000e+00                 1s

    1191 PPushes remaining with PInf 0.0000000e+00                 1s
       0 PPushes remaining with PInf 0.0000000e+00                 2s

  Push phase complete: Pinf 0.0000000e+00, Dinf 3.0489437e-11      2s

Iteration    Objective       Primal Inf.    Dual Inf.      Time
    4389    1.3643655e+04   0.000000e+00   0.000000e+00      2s

Solved in 4389 iterations and 1.69 seconds (1.12 work units)
Optimal objective  1.364365540e+04

Gurobi 11.0.0 (linux64) logging started Sat Sep 21 21:39:25 2024

Set parameter LogFile to value "/lustre1/scratch/348/vsc34888/JointResearch/05.Models/06.Benchmarking/D.Representative_days_based_on_RES_and_Demand/IEEE118_mod1_ByStages_nc140/openStarNet_IEEE118_mod1_ByStages_nc140.log"
Set parameter Method to value 2
Set parameter MIPFocus to value 1
Set parameter Presolve to value 2
Set parameter RINS to value 100
Set parameter MIPGap to value 0.01
Set parameter Threads to value 36
Set parameter TimeLimit to value 259200
Set parameter IterationLimit to value 760000000
Gurobi Optimizer version 11.0.0 build v11.0.0rc2 (linux64 - "Rocky Linux 8.9 (Green Obsidian)")

CPU model: Intel(R) Xeon(R) Gold 6240 CPU @ 2.60GHz, instruction set [SSE2|AVX|AVX2|AVX512]
Thread count: 36 physical cores, 36 logical processors, using up to 36 threads

Optimize a model with 198943 rows, 147068 columns and 493526 nonzeros
Model fingerprint: 0xb53334e4
Coefficient statistics:
  Matrix range     [8e-04, 9e+03]
  Objective range  [1e+00, 1e+00]
  Bounds range     [1e-04, 3e+00]
  RHS range        [2e-04, 3e+00]
Presolve removed 150498 rows and 68967 columns
Presolve time: 0.29s
Presolved: 48445 rows, 80369 columns, 191028 nonzeros

Ordering time: 0.01s

Barrier statistics:
 AA' NZ     : 1.686e+05
 Factor NZ  : 6.295e+05 (roughly 60 MB of memory)
 Factor Ops : 9.105e+06 (less than 1 second per iteration)
 Threads    : 36

                  Objective                Residual
Iter       Primal          Dual         Primal    Dual     Compl     Time
   0   1.74342947e+07 -4.20321496e+08  1.11e+02 3.32e+01  1.18e+04     0s
   1   1.83688964e+06 -1.41143659e+08  1.00e+01 1.18e-12  1.47e+03     0s
   2   5.69274400e+05 -2.82872169e+07  2.02e+00 1.15e-12  2.51e+02     0s
   3   2.45138152e+05 -4.62781713e+06  6.75e-02 8.53e-13  2.92e+01     0s
   4   1.44120481e+05 -7.82997825e+05  6.70e-03 7.96e-13  5.30e+00     0s
   5   8.78624167e+04 -2.87623119e+05  3.28e-03 6.82e-13  2.14e+00     0s
   6   5.80357430e+04 -1.52044576e+05  1.84e-03 2.27e-13  1.20e+00     1s
   7   4.38229972e+04 -8.35461207e+04  1.19e-03 4.55e-13  7.24e-01     1s
   8   3.20927232e+04 -4.15581338e+04  6.67e-04 2.27e-13  4.19e-01     1s
   9   2.37612628e+04 -6.84787398e+03  3.24e-04 2.27e-13  1.74e-01     1s
  10   2.08819289e+04  3.23457266e+03  2.21e-04 4.55e-13  1.00e-01     1s
  11   1.79318196e+04  9.50270480e+03  1.27e-04 3.41e-13  4.79e-02     1s
  12   1.61330869e+04  1.17781514e+04  7.29e-05 2.27e-13  2.47e-02     1s
  13   1.49765479e+04  1.24531852e+04  3.86e-05 2.27e-13  1.43e-02     1s
  14   1.45806741e+04  1.29222855e+04  2.66e-05 2.27e-13  9.42e-03     1s
  15   1.42779348e+04  1.31907765e+04  1.77e-05 2.27e-13  6.18e-03     1s
  16   1.40705535e+04  1.33695232e+04  1.18e-05 2.49e-13  3.98e-03     1s
  17   1.38806984e+04  1.34733093e+04  6.40e-06 2.27e-13  2.31e-03     1s
  18   1.38039638e+04  1.35709250e+04  4.31e-06 2.27e-13  1.32e-03     1s
  19   1.37310579e+04  1.36014165e+04  2.31e-06 2.27e-13  7.36e-04     1s
  20   1.36720201e+04  1.36253223e+04  7.22e-07 2.30e-13  2.65e-04     1s
  21   1.36545271e+04  1.36397163e+04  2.67e-07 2.27e-13  8.41e-05     1s
  22   1.36467088e+04  1.36422293e+04  7.23e-08 2.27e-13  2.54e-05     1s
  23   1.36447758e+04  1.36429660e+04  2.60e-08 4.55e-13  1.03e-05     1s
  24   1.36442348e+04  1.36434720e+04  1.31e-08 4.55e-13  4.33e-06     1s
  25   1.36438381e+04  1.36436150e+04  4.02e-09 4.55e-13  1.27e-06     1s
  26   1.36436633e+04  1.36436490e+04  3.61e-10 3.41e-13  8.13e-08     1s
  27   1.36436557e+04  1.36436552e+04  2.86e-10 4.55e-13  3.01e-09     1s
  28   1.36436554e+04  1.36436554e+04  4.99e-10 2.27e-13  1.61e-11     1s

Barrier solved model in 28 iterations and 0.91 seconds (0.92 work units)
Optimal objective 1.36436554e+04

Crossover log...

   14207 DPushes remaining with DInf 0.0000000e+00                 1s
       0 DPushes remaining with DInf 0.0000000e+00                 1s

    1191 PPushes remaining with PInf 0.0000000e+00                 1s
       0 PPushes remaining with PInf 0.0000000e+00                 1s

  Push phase complete: Pinf 0.0000000e+00, Dinf 3.0489437e-11      1s

Iteration    Objective       Primal Inf.    Dual Inf.      Time
    4389    1.3643655e+04   0.000000e+00   0.000000e+00      1s

Solved in 4389 iterations and 1.31 seconds (1.12 work units)
Optimal objective  1.364365540e+04
